p cnf 591
-6 -188
-7 -191
-8 -194
-9 -197
-10 -200
-11 201
-12 202
-13 203
-14 204
-15 205
-16 206
-17 207
-18 208
-19 209
-20 -7
-20 -8
7 8 20
-21 -9
-21 -10
9 10 21
-22 -11
-22 -12
11 12 22
-23 -13
-23 -14
13 14 23
-24 -15
-24 -16
15 16 24
-25 -17
-25 -18
17 18 25
-26 20
-26 21
-20 -21 26
-27 22
-27 23
-22 -23 27
-28 24
-28 25
-24 -25 28
-29 26
-29 27
-26 -27 29
-30 -19
-30 28
19 -28 30
-31 29
-31 30
-29 -30 31
-32 -6
-32 7
6 -7 32
-33 6
-33 -7
-6 7 33
-34 -32
-34 -33
32 33 34
-35 6
-35 7
-6 -7 35
-36 -6
-36 -34
6 34 36
-37 6
-37 34
-6 -34 37
-38 -36
-38 -37
36 37 38
-39 6
-39 -34
-6 34 39
-40 -35
-40 -39
35 39 40
-41 -7
-41 8
7 -8 41
-42 7
-42 -8
-7 8 42
-43 -41
-43 -42
41 42 43
-44 7
-44 8
-7 -8 44
-45 40
-45 -43
-40 43 45
-46 -40
-46 43
40 -43 46
-47 -45
-47 -46
45 46 47
-48 -40
-48 -43
40 43 48
-49 -44
-49 -48
44 48 49
-50 -8
-50 9
8 -9 50
-51 8
-51 -9
-8 9 51
-52 -50
-52 -51
50 51 52
-53 8
-53 9
-8 -9 53
-54 49
-54 -52
-49 52 54
-55 -49
-55 52
49 -52 55
-56 -54
-56 -55
54 55 56
-57 -49
-57 -52
49 52 57
-58 -53
-58 -57
53 57 58
-59 -9
-59 10
9 -10 59
-60 9
-60 -10
-9 10 60
-61 -59
-61 -60
59 60 61
-62 9
-62 10
-9 -10 62
-63 58
-63 -61
-58 61 63
-64 -58
-64 61
58 -61 64
-65 -63
-65 -64
63 64 65
-66 -58
-66 -61
58 61 66
-67 -62
-67 -66
62 66 67
-68 -10
-68 11
10 -11 68
-69 10
-69 -11
-10 11 69
-70 -68
-70 -69
68 69 70
-71 10
-71 11
-10 -11 71
-72 67
-72 -70
-67 70 72
-73 -67
-73 70
67 -70 73
-74 -72
-74 -73
72 73 74
-75 -67
-75 -70
67 70 75
-76 -71
-76 -75
71 75 76
-77 -11
-77 12
11 -12 77
-78 11
-78 -12
-11 12 78
-79 -77
-79 -78
77 78 79
-80 11
-80 12
-11 -12 80
-81 76
-81 -79
-76 79 81
-82 -76
-82 79
76 -79 82
-83 -81
-83 -82
81 82 83
-84 -76
-84 -79
76 79 84
-85 -80
-85 -84
80 84 85
-86 -12
-86 13
12 -13 86
-87 12
-87 -13
-12 13 87
-88 -86
-88 -87
86 87 88
-89 12
-89 13
-12 -13 89
-90 85
-90 -88
-85 88 90
-91 -85
-91 88
85 -88 91
-92 -90
-92 -91
90 91 92
-93 -85
-93 -88
85 88 93
-94 -89
-94 -93
89 93 94
-95 -13
-95 14
13 -14 95
-96 13
-96 -14
-13 14 96
-97 -95
-97 -96
95 96 97
-98 13
-98 14
-13 -14 98
-99 94
-99 -97
-94 97 99
-100 -94
-100 97
94 -97 100
-101 -99
-101 -100
99 100 101
-102 -94
-102 -97
94 97 102
-103 -98
-103 -102
98 102 103
-104 -14
-104 15
14 -15 104
-105 14
-105 -15
-14 15 105
-106 -104
-106 -105
104 105 106
-107 14
-107 15
-14 -15 107
-108 103
-108 -106
-103 106 108
-109 -103
-109 106
103 -106 109
-110 -108
-110 -109
108 109 110
-111 -103
-111 -106
103 106 111
-112 -107
-112 -111
107 111 112
-113 -15
-113 16
15 -16 113
-114 15
-114 -16
-15 16 114
-115 -113
-115 -114
113 114 115
-116 15
-116 16
-15 -16 116
-117 112
-117 -115
-112 115 117
-118 -112
-118 115
112 -115 118
-119 -117
-119 -118
117 118 119
-120 -112
-120 -115
112 115 120
-121 -116
-121 -120
116 120 121
-122 -16
-122 17
16 -17 122
-123 16
-123 -17
-16 17 123
-124 -122
-124 -123
122 123 124
-125 16
-125 17
-16 -17 125
-126 121
-126 -124
-121 124 126
-127 -121
-127 124
121 -124 127
-128 -126
-128 -127
126 127 128
-129 -121
-129 -124
121 124 129
-130 -125
-130 -129
125 129 130
-131 -17
-131 18
17 -18 131
-132 17
-132 -18
-17 18 132
-133 -131
-133 -132
131 132 133
-134 17
-134 18
-17 -18 134
-135 130
-135 -133
-130 133 135
-136 -130
-136 133
130 -133 136
-137 -135
-137 -136
135 136 137
-138 -130
-138 -133
130 133 138
-139 -134
-139 -138
134 138 139
-140 -18
-140 19
18 -19 140
-141 18
-141 -19
-18 19 141
-142 -140
-142 -141
140 141 142
-143 18
-143 19
-18 -19 143
-144 139
-144 -142
-139 142 144
-145 -139
-145 142
139 -142 145
-146 -144
-146 -145
144 145 146
-147 -139
-147 -142
139 142 147
-148 -143
-148 -147
143 147 148
-149 6
-149 -38
-6 38 149
-150 -6
-150 8
6 -8 150
-151 -149
-151 -150
149 150 151
-152 6
-152 -47
-6 47 152
-153 -6
-153 9
6 -9 153
-154 -152
-154 -153
152 153 154
-155 6
-155 -56
-6 56 155
-156 -6
-156 10
6 -10 156
-157 -155
-157 -156
155 156 157
-158 6
-158 -65
-6 65 158
-159 -6
-159 11
6 -11 159
-160 -158
-160 -159
158 159 160
-161 6
-161 -74
-6 74 161
-162 -6
-162 12
6 -12 162
-163 -161
-163 -162
161 162 163
-164 6
-164 -83
-6 83 164
-165 -6
-165 13
6 -13 165
-166 -164
-166 -165
164 165 166
-167 6
-167 -92
-6 92 167
-168 -6
-168 14
6 -14 168
-169 -167
-169 -168
167 168 169
-170 6
-170 -101
-6 101 170
-171 -6
-171 15
6 -15 171
-172 -170
-172 -171
170 171 172
-173 6
-173 -110
-6 110 173
-174 -6
-174 16
6 -16 174
-175 -173
-175 -174
173 174 175
-176 6
-176 -119
-6 119 176
-177 -6
-177 17
6 -17 177
-178 -176
-178 -177
176 177 178
-179 6
-179 -128
-6 128 179
-180 -6
-180 18
6 -18 180
-181 -179
-181 -180
179 180 181
-182 6
-182 -137
-6 137 182
-183 -6
-183 19
6 -19 183
-184 -182
-184 -183
182 183 184
-185 6
-185 -146
-6 146 185
-186 1
-186 31
-1 -31 186
-187 -31
-187 32
31 -32 187
-188 -186
-188 -187
186 187 188
-189 2
-189 31
-2 -31 189
-190 -31
-190 -151
31 151 190
-191 -189
-191 -190
189 190 191
-192 3
-192 31
-3 -31 192
-193 -31
-193 -154
31 154 193
-194 -192
-194 -193
192 193 194
-195 4
-195 31
-4 -31 195
-196 -31
-196 -157
31 157 196
-197 -195
-197 -196
195 196 197
-198 5
-198 31
-5 -31 198
-199 -31
-199 -160
31 160 199
-200 -198
-200 -199
198 199 200
-201 -31
-201 -163
31 163 201
-202 -31
-202 -166
31 166 202
-203 -31
-203 -169
31 169 203
-204 -31
-204 -172
31 172 204
-205 -31
-205 -175
31 175 205
-206 -31
-206 -178
31 178 206
-207 -31
-207 -181
31 181 207
-208 -31
-208 -184
31 184 208
-209 -31
-209 185
31 -185 209
-210 -19
-210 148
19 -148 210
-211 6
-211 -210
-6 210 211
211
